(set-logic QF_S)
(declare-fun var0 () String)
(declare-fun var1 () String)
(declare-fun var2 () String)
(declare-fun var3 () Int)
(declare-fun var4 () Int)
(declare-fun var5 () Int)
(declare-fun var6 () Bool)
(declare-fun var7 () Bool)
(declare-fun var8 () Bool)
(assert (<= var5 var4))
(assert (str.suffixof var2 var1))
(assert (str.prefixof (str.replace var1 var2 var0) (str.substr var2 var5 var3)))
(assert (str.in.re (str.substr (str.replace var0 var1 "NUeZl`b?+R") (str.len "w{o*wE[j25") (str.indexof "49-=J)><E5" var1 var3)) (re.* re.allchar)))
(check-sat)